proyfinal/src/viki/013/experimentInOfficeAgust.take6.output/3410abc2-c0e8-4e4b-8308-7082d3010042.als.out
Reading from standard input... Use '--help' for help.
============================[ Problem Statistics ]=============================
|                                                                             |
|  Number of variables:         87638                                         |
|  Number of clauses:          161767                                         |
|  Parse time:                   0.04 s                                       |
|                                                                             |
============================[ Search Statistics ]==============================
| Conflicts |          ORIGINAL         |          LEARNT          | Progress |
|           |    Vars  Clauses Literals |    Limit  Clauses Lit/Cl |          |
===============================================================================
|       100 |   62789   106608   266372 |    39089      100      8 | 28.354 % |
|       250 |   62789   106608   266372 |    42998      250     19 | 28.354 % |
|       475 |   62789   106608   266372 |    47298      475     39 | 28.354 % |
|       812 |   62789   106608   266372 |    52028      812     45 | 28.354 % |
|      1318 |   62789   106608   266372 |    57231     1318     54 | 28.354 % |
|      2077 |   62789   106608   266372 |    62954     2077     63 | 28.354 % |
|      3216 |   62789   106608   266372 |    69249     3216     61 | 28.354 % |
|      4924 |   62789   106608   266372 |    76174     4924     65 | 28.354 % |
|      7486 |   62638   105954   264672 |    83792     6700     75 | 28.526 % |
|     11330 |   50842    70697   177743 |    92171     9913     74 | 41.986 % |
===============================================================================
restarts              : 62
conflicts             : 15823          (8067 /sec)
decisions             : 52637          (0.00 % random) (26837 /sec)
propagations          : 20799714       (10604784 /sec)
conflict literals     : 1002800        (47.64 % deleted)
Memory used           : 27.44 MB
CPU time              : 1.96135 s

UNSATISFIABLE
